n_students = 400;
n_companies = 15;
best_expectations = [4, 3, 3, 4, 5, 3, 5, 7, 3, 4, 4, 4, 5, 5, 4, 4, 4, 3, 4, 4, 3, 3, 5, 4, 5, 5, 3, 4, 5, 5, 5, 3, 4, 4, 5, 3, 6, 4, 3, 3, 3, 7, 3, 5, 4, 7, 6, 5, 6, 3, 3, 5, 3, 5, 3, 4, 5, 3, 3, 3, 8, 4, 4, 5, 3, 3, 3, 4, 3, 6, 3, 6, 4, 3, 3, 3, 4, 5, 5, 4, 3, 5, 3, 3, 4, 4, 3, 4, 3, 5, 6, 5, 6, 3, 3, 4, 4, 5, 5, 3, 3, 3, 3, 3, 4, 3, 3, 6, 6, 3, 5, 6, 3, 4, 4, 3, 3, 3, 3, 3, 4, 5, 6, 4, 4, 6, 4, 3, 3, 3, 3, 5, 3, 4, 3, 3, 5, 3, 5, 3, 4, 3, 3, 9, 4, 3, 4, 4, 4, 4, 3, 6, 3, 3, 4, 3, 3, 5, 4, 3, 5, 5, 3, 4, 3, 3, 3, 7, 3, 3, 3, 3, 3, 3, 6, 3, 3, 3, 5, 5, 3, 4, 3, 6, 4, 5, 3, 3, 4, 3, 4, 3, 3, 3, 5, 4, 3, 7, 4, 3, 3, 3, 3, 5, 5, 5, 5, 3, 3, 5, 3, 3, 3, 6, 4, 3, 3, 4, 3, 3, 4, 4, 3, 4, 5, 4, 4, 4, 3, 3, 3, 4, 3, 3, 3, 3, 6, 5, 6, 3, 4, 6, 6, 4, 4, 3, 3, 5, 5, 6, 3, 3, 5, 5, 4, 5, 5, 4, 4, 5, 4, 4, 5, 4, 4, 3, 5, 6, 4, 4, 4, 4, 5, 3, 3, 4, 5, 3, 5, 5, 4, 3, 3, 5, 4, 5, 6, 5, 5, 4, 3, 4, 3, 3, 4, 5, 4, 3, 4, 3, 3, 3, 3, 4, 4, 3, 4, 6, 6, 4, 4, 3, 6, 5, 3, 3, 8, 5, 3, 4, 4, 3, 3, 3, 4, 4, 3, 4, 5, 5, 4, 3, 3, 3, 6, 6, 3, 3, 3, 3, 4, 4, 4, 3, 5, 3, 3, 3, 4, 3, 3, 4, 5, 5, 6, 3, 3, 5, 4, 3, 3, 3, 3, 3, 5, 3, 3, 3, 5, 4, 5, 6, 4, 3, 3, 3, 3, 3, 5, 4, 3, 4, 3, 3, 4, 4, 5, 5, 6, 4, 4, 4, 3, 4, 3, 3, 3, 3, 3, 4];
preferences = 
 [|4, 5, 5, 1, 1, 2, 5, 5, 4, 3, 2, 3, 5, 2, 2
  |2, 1, 5, 1, 5, 1, 3, 3, 2, 2, 4, 2, 4, 1, 2
  |4, 2, 2, 4, 1, 2, 5, 4, 2, 4, 1, 1, 5, 3, 2
  |1, 4, 3, 4, 5, 1, 5, 4, 2, 5, 3, 4, 3, 3, 3
  |5, 3, 2, 3, 1, 3, 4, 2, 2, 3, 5, 2, 5, 4, 5
  |2, 5, 2, 2, 1, 5, 1, 4, 1, 2, 5, 2, 5, 5, 2
  |4, 4, 2, 5, 3, 1, 5, 5, 3, 5, 2, 2, 4, 2, 5
  |2, 3, 4, 5, 4, 3, 5, 4, 4, 5, 4, 2, 5, 5, 3
  |1, 2, 2, 2, 1, 1, 3, 4, 5, 4, 4, 2, 3, 5, 5
  |5, 5, 2, 5, 2, 4, 5, 2, 4, 2, 4, 1, 5, 1, 2
  |5, 5, 2, 1, 2, 4, 5, 5, 5, 5, 5, 5, 3, 3, 1
  |5, 5, 2, 5, 4, 1, 2, 3, 5, 5, 2, 2, 1, 2, 5
  |5, 3, 3, 3, 4, 2, 2, 4, 5, 5, 1, 4, 4, 2, 5
  |3, 5, 3, 5, 1, 3, 3, 2, 2, 5, 3, 2, 4, 3, 2
  |4, 2, 1, 4, 2, 4, 2, 2, 2, 3, 2, 2, 1, 3, 5
  |5, 4, 4, 1, 2, 1, 2, 4, 4, 3, 2, 4, 4, 2, 4
  |3, 5, 3, 3, 2, 1, 4, 3, 3, 5, 2, 5, 5, 1, 2
  |5, 1, 5, 2, 3, 2, 3, 2, 1, 5, 1, 1, 5, 3, 5
  |2, 3, 2, 1, 2, 1, 4, 2, 3, 5, 2, 2, 5, 5, 2
  |2, 5, 2, 1, 1, 4, 4, 4, 3, 4, 2, 2, 4, 4, 3
  |2, 5, 3, 1, 1, 1, 3, 5, 2, 4, 1, 2, 3, 3, 5
  |1, 2, 5, 4, 4, 1, 5, 3, 3, 4, 2, 4, 3, 2, 1
  |5, 2, 5, 5, 5, 4, 2, 5, 5, 3, 3, 5, 2, 4, 1
  |4, 5, 5, 3, 2, 5, 5, 1, 2, 5, 1, 3, 3, 3, 5
  |4, 2, 5, 3, 1, 2, 2, 5, 5, 2, 2, 5, 4, 2, 5
  |5, 4, 3, 1, 3, 3, 5, 3, 2, 3, 4, 2, 3, 5, 5
  |3, 3, 2, 1, 1, 5, 2, 3, 2, 3, 5, 2, 3, 1, 2
  |5, 2, 3, 5, 1, 4, 4, 5, 2, 3, 1, 5, 5, 4, 4
  |2, 5, 2, 4, 2, 2, 3, 2, 2, 5, 1, 2, 4, 3, 2
  |5, 2, 2, 2, 2, 5, 3, 5, 2, 5, 2, 1, 5, 2, 3
  |3, 3, 1, 3, 1, 4, 5, 5, 5, 4, 5, 3, 3, 5, 3
  |3, 2, 5, 3, 4, 2, 2, 1, 2, 5, 2, 2, 3, 1, 1
  |3, 5, 4, 1, 3, 1, 2, 5, 5, 3, 3, 2, 5, 3, 3
  |5, 2, 5, 1, 1, 4, 3, 5, 4, 3, 5, 2, 5, 5, 2
  |5, 2, 3, 5, 1, 3, 5, 2, 2, 2, 5, 4, 5, 3, 4
  |3, 3, 1, 5, 2, 1, 1, 4, 5, 5, 3, 1, 3, 3, 1
  |5, 4, 5, 5, 4, 4, 5, 2, 5, 5, 5, 4, 3, 1, 5
  |5, 3, 4, 1, 2, 4, 1, 5, 4, 3, 4, 4, 3, 5, 3
  |5, 3, 5, 2, 1, 1, 3, 5, 4, 3, 1, 4, 1, 2, 3
  |5, 2, 5, 5, 1, 3, 5, 3, 2, 5, 1, 1, 3, 3, 5
  |2, 1, 2, 1, 2, 3, 5, 5, 3, 5, 1, 5, 5, 3, 5
  |3, 5, 3, 1, 5, 3, 4, 5, 4, 4, 3, 4, 5, 5, 3
  |1, 1, 2, 1, 4, 4, 5, 2, 2, 5, 1, 5, 1, 3, 5
  |4, 3, 4, 4, 1, 4, 5, 2, 2, 3, 5, 5, 5, 3, 3
  |2, 3, 3, 5, 1, 4, 1, 4, 4, 5, 4, 2, 3, 5, 4
  |2, 5, 5, 3, 5, 2, 3, 5, 4, 4, 5, 5, 5, 3, 4
  |5, 5, 4, 3, 2, 2, 2, 4, 5, 2, 3, 5, 5, 4, 4
  |5, 5, 5, 1, 2, 4, 5, 2, 3, 5, 4, 3, 2, 3, 5
  |5, 2, 3, 5, 2, 3, 4, 3, 2, 5, 3, 2, 3, 5, 5
  |5, 3, 5, 1, 1, 1, 1, 2, 5, 3, 4, 2, 3, 2, 2
  |1, 2, 2, 5, 2, 3, 1, 1, 3, 5, 4, 5, 1, 5, 3
  |2, 2, 2, 4, 1, 4, 5, 5, 2, 5, 4, 2, 3, 5, 5
  |5, 5, 2, 1, 5, 1, 5, 1, 5, 5, 3, 3, 5, 3, 2
  |3, 1, 4, 5, 2, 3, 2, 5, 5, 5, 5, 4, 3, 3, 4
  |5, 5, 2, 1, 1, 1, 2, 5, 5, 1, 3, 5, 5, 2, 3
  |3, 3, 4, 5, 1, 2, 3, 3, 2, 3, 1, 5, 5, 3, 5
  |3, 2, 2, 1, 5, 2, 3, 4, 2, 2, 5, 4, 5, 2, 5
  |1, 3, 1, 1, 1, 5, 3, 4, 5, 3, 1, 3, 3, 3, 3
  |5, 5, 3, 5, 5, 5, 5, 5, 5, 3, 1, 1, 5, 3, 1
  |4, 3, 2, 1, 1, 3, 4, 3, 4, 4, 1, 1, 3, 2, 3
  |4, 3, 2, 3, 4, 3, 3, 4, 3, 4, 3, 5, 5, 5, 3
  |2, 4, 2, 1, 2, 1, 3, 4, 5, 4, 3, 2, 5, 5, 3
  |5, 4, 2, 4, 1, 5, 5, 5, 4, 3, 2, 5, 2, 1, 4
  |3, 2, 2, 3, 2, 1, 3, 5, 2, 3, 3, 2, 3, 2, 5
  |5, 4, 5, 3, 5, 1, 1, 5, 3, 5, 1, 4, 5, 2, 2
  |4, 5, 2, 1, 4, 1, 5, 3, 4, 3, 2, 2, 5, 1, 5
  |5, 2, 3, 1, 4, 1, 1, 5, 5, 3, 5, 2, 5, 5, 3
  |5, 2, 2, 1, 1, 3, 5, 5, 4, 5, 4, 2, 3, 5, 5
  |5, 3, 4, 5, 5, 3, 1, 1, 5, 3, 4, 5, 5, 3, 1
  |5, 5, 1, 5, 3, 2, 5, 3, 4, 4, 4, 5, 4, 5, 5
  |1, 2, 4, 1, 3, 2, 3, 2, 3, 3, 4, 5, 1, 4, 5
  |5, 2, 2, 3, 2, 5, 5, 2, 2, 5, 5, 3, 5, 3, 5
  |5, 2, 2, 2, 1, 4, 5, 4, 1, 2, 4, 5, 5, 3, 3
  |5, 4, 2, 5, 1, 1, 3, 5, 2, 5, 1, 2, 4, 5, 5
  |1, 5, 5, 2, 1, 1, 3, 3, 4, 3, 4, 2, 4, 3, 4
  |1, 3, 4, 3, 1, 2, 5, 2, 5, 5, 2, 5, 1, 3, 5
  |1, 2, 2, 1, 2, 2, 5, 3, 5, 3, 5, 3, 4, 2, 4
  |2, 2, 5, 5, 1, 4, 3, 3, 4, 5, 4, 2, 5, 5, 5
  |5, 5, 4, 1, 2, 2, 3, 5, 5, 5, 4, 5, 3, 3, 5
  |4, 2, 2, 1, 2, 2, 1, 2, 2, 5, 3, 2, 5, 5, 2
  |2, 1, 1, 5, 3, 4, 3, 1, 2, 4, 2, 5, 1, 1, 2
  |2, 4, 2, 3, 2, 2, 1, 3, 5, 5, 5, 2, 3, 5, 2
  |3, 2, 2, 1, 1, 1, 1, 5, 2, 2, 1, 4, 2, 5, 3
  |1, 4, 5, 1, 1, 1, 5, 5, 4, 5, 1, 5, 3, 5, 5
  |3, 5, 1, 2, 5, 1, 3, 5, 5, 3, 4, 4, 2, 5, 4
  |5, 5, 4, 5, 1, 3, 5, 2, 5, 5, 1, 2, 4, 2, 2
  |3, 1, 2, 5, 1, 1, 3, 2, 3, 4, 5, 2, 1, 2, 3
  |3, 2, 4, 5, 5, 1, 5, 3, 3, 3, 5, 2, 4, 2, 1
  |5, 3, 4, 5, 1, 5, 4, 5, 3, 3, 1, 5, 3, 3, 1
  |2, 2, 2, 2, 5, 2, 5, 3, 4, 5, 1, 2, 3, 2, 5
  |2, 2, 2, 3, 2, 3, 5, 4, 4, 5, 4, 5, 4, 3, 3
  |4, 3, 4, 5, 2, 3, 3, 5, 3, 2, 2, 3, 1, 5, 3
  |4, 2, 2, 4, 4, 2, 5, 5, 5, 3, 3, 2, 5, 3, 4
  |2, 2, 5, 4, 1, 5, 1, 5, 5, 2, 3, 1, 1, 1, 1
  |2, 4, 3, 3, 2, 3, 1, 1, 4, 5, 1, 3, 3, 1, 2
  |1, 4, 2, 2, 4, 4, 5, 5, 2, 2, 4, 1, 5, 3, 5
  |4, 4, 2, 5, 5, 2, 5, 3, 4, 3, 1, 4, 3, 2, 1
  |4, 3, 5, 5, 1, 2, 5, 5, 3, 2, 5, 5, 4, 2, 2
  |2, 4, 3, 1, 2, 3, 2, 3, 2, 2, 3, 2, 3, 2, 5
  |1, 4, 4, 5, 4, 4, 1, 3, 3, 2, 1, 3, 3, 3, 3
  |2, 5, 1, 1, 5, 1, 5, 3, 3, 3, 5, 5, 1, 2, 4
  |1, 5, 4, 5, 1, 1, 5, 2, 4, 4, 5, 5, 5, 2, 3
  |1, 4, 5, 1, 3, 3, 3, 4, 1, 2, 3, 5, 1, 5, 5
  |1, 2, 5, 2, 2, 1, 1, 2, 2, 5, 5, 2, 5, 3, 5
  |2, 2, 1, 1, 2, 2, 3, 5, 4, 5, 3, 5, 5, 5, 5
  |5, 3, 2, 1, 1, 4, 5, 5, 1, 5, 4, 2, 2, 5, 4
  |3, 2, 1, 5, 2, 1, 3, 5, 3, 4, 3, 4, 1, 3, 4
  |3, 2, 2, 5, 2, 3, 5, 5, 4, 2, 5, 5, 5, 2, 5
  |4, 4, 2, 5, 5, 2, 5, 2, 2, 3, 2, 2, 5, 5, 2
  |5, 3, 3, 1, 1, 4, 3, 2, 5, 5, 4, 1, 2, 3, 4
  |5, 5, 5, 5, 2, 2, 3, 4, 4, 5, 1, 2, 3, 2, 4
  |5, 5, 2, 5, 3, 4, 4, 2, 2, 2, 4, 2, 3, 3, 5
  |5, 2, 1, 5, 3, 1, 1, 3, 5, 3, 1, 2, 2, 3, 5
  |5, 3, 1, 5, 3, 1, 5, 5, 2, 2, 4, 5, 5, 5, 5
  |4, 4, 5, 3, 5, 5, 1, 2, 3, 3, 5, 1, 3, 5, 5
  |2, 5, 1, 5, 1, 2, 3, 5, 1, 3, 4, 4, 2, 3, 1
  |5, 5, 2, 5, 1, 5, 5, 5, 4, 5, 5, 5, 5, 5, 4
  |2, 3, 4, 2, 1, 5, 4, 5, 2, 1, 1, 4, 4, 5, 2
  |5, 2, 5, 1, 1, 1, 1, 5, 4, 3, 1, 5, 3, 4, 4
  |3, 2, 5, 2, 1, 2, 3, 2, 4, 2, 1, 1, 3, 3, 3
  |5, 4, 2, 3, 3, 4, 3, 5, 1, 5, 4, 3, 3, 1, 3
  |5, 2, 4, 4, 1, 2, 3, 5, 5, 3, 2, 4, 5, 5, 5
  |2, 2, 2, 2, 2, 3, 5, 4, 5, 5, 5, 5, 5, 3, 5
  |2, 4, 2, 5, 3, 1, 5, 5, 2, 2, 1, 2, 5, 2, 5
  |1, 2, 4, 5, 2, 3, 4, 2, 3, 3, 3, 1, 4, 3, 2
  |4, 2, 3, 3, 2, 2, 3, 5, 2, 3, 2, 2, 3, 2, 4
  |5, 4, 4, 1, 4, 3, 1, 5, 2, 3, 5, 3, 5, 3, 3
  |1, 2, 1, 1, 1, 3, 5, 5, 2, 5, 5, 2, 5, 2, 3
  |2, 5, 3, 1, 1, 2, 5, 4, 2, 4, 5, 5, 5, 3, 1
  |5, 2, 4, 3, 1, 4, 4, 4, 3, 5, 1, 2, 1, 4, 3
  |3, 3, 1, 1, 2, 5, 5, 5, 4, 3, 3, 1, 1, 1, 3
  |5, 2, 3, 3, 1, 4, 4, 2, 2, 4, 2, 4, 5, 3, 5
  |5, 5, 4, 1, 1, 3, 3, 1, 2, 5, 4, 2, 5, 2, 1
  |5, 2, 2, 2, 1, 5, 4, 3, 5, 4, 5, 1, 4, 3, 5
  |5, 5, 1, 1, 1, 2, 4, 5, 2, 5, 1, 2, 5, 5, 5
  |2, 4, 2, 1, 3, 5, 1, 3, 1, 4, 2, 5, 2, 4, 5
  |5, 2, 2, 1, 2, 2, 4, 2, 2, 3, 4, 5, 3, 2, 4
  |4, 4, 4, 4, 1, 1, 5, 4, 4, 2, 1, 5, 5, 1, 3
  |5, 4, 3, 5, 2, 2, 5, 4, 2, 5, 4, 3, 5, 5, 1
  |5, 3, 2, 4, 2, 1, 1, 4, 3, 2, 5, 4, 5, 1, 5
  |3, 5, 3, 5, 4, 4, 4, 5, 1, 3, 1, 2, 4, 2, 5
  |5, 4, 3, 3, 1, 3, 3, 4, 2, 3, 1, 2, 1, 2, 3
  |2, 1, 2, 4, 1, 2, 5, 5, 5, 3, 5, 1, 3, 5, 3
  |4, 3, 4, 3, 3, 5, 5, 5, 3, 4, 5, 4, 5, 3, 3
  |5, 2, 2, 5, 5, 2, 1, 1, 2, 4, 5, 4, 5, 3, 2
  |2, 5, 1, 1, 2, 1, 2, 4, 4, 3, 5, 3, 3, 1, 4
  |5, 2, 3, 5, 1, 1, 2, 5, 2, 4, 5, 2, 3, 3, 4
  |2, 3, 3, 1, 1, 2, 5, 3, 4, 4, 3, 2, 5, 5, 3
  |4, 2, 5, 2, 2, 2, 3, 2, 1, 3, 1, 5, 3, 2, 3
  |5, 4, 5, 2, 1, 5, 4, 3, 2, 2, 4, 2, 1, 2, 2
  |5, 2, 3, 3, 1, 4, 2, 4, 4, 4, 1, 5, 1, 2, 1
  |5, 4, 2, 3, 2, 2, 5, 3, 3, 2, 5, 2, 5, 5, 5
  |4, 3, 2, 1, 1, 4, 2, 3, 4, 5, 5, 1, 1, 4, 5
  |5, 2, 3, 3, 1, 1, 5, 4, 1, 3, 2, 4, 3, 2, 5
  |3, 4, 2, 1, 2, 1, 5, 2, 2, 4, 2, 5, 5, 2, 5
  |4, 1, 4, 5, 1, 5, 1, 5, 4, 3, 4, 5, 1, 4, 1
  |5, 5, 3, 2, 1, 3, 2, 4, 1, 4, 1, 1, 3, 3, 4
  |3, 2, 5, 4, 4, 3, 1, 2, 5, 3, 5, 4, 5, 3, 4
  |4, 5, 4, 1, 2, 2, 2, 3, 5, 3, 4, 5, 1, 5, 2
  |5, 5, 5, 1, 3, 4, 3, 1, 4, 5, 2, 1, 5, 3, 5
  |2, 4, 2, 5, 5, 3, 5, 5, 4, 3, 2, 2, 3, 1, 3
  |4, 4, 4, 5, 2, 3, 3, 3, 5, 5, 5, 2, 5, 2, 1
  |3, 2, 2, 4, 4, 4, 5, 5, 5, 3, 2, 1, 5, 1, 1
  |2, 2, 3, 1, 2, 1, 5, 3, 2, 5, 5, 4, 5, 3, 5
  |3, 4, 4, 5, 2, 1, 3, 5, 4, 4, 1, 1, 1, 4, 5
  |5, 3, 2, 3, 1, 3, 5, 4, 1, 5, 1, 3, 2, 3, 2
  |1, 2, 3, 1, 5, 2, 5, 1, 5, 5, 3, 1, 5, 3, 3
  |5, 4, 3, 3, 3, 3, 5, 5, 3, 2, 3, 4, 3, 2, 5
  |2, 2, 2, 5, 2, 1, 5, 2, 2, 3, 5, 1, 1, 3, 5
  |1, 2, 1, 3, 1, 1, 3, 3, 4, 5, 1, 2, 1, 5, 5
  |3, 3, 5, 5, 4, 1, 1, 2, 1, 4, 3, 4, 2, 1, 3
  |5, 5, 3, 5, 1, 1, 2, 5, 5, 3, 4, 1, 5, 5, 5
  |4, 1, 4, 1, 4, 1, 3, 5, 5, 5, 1, 2, 5, 2, 4
  |2, 1, 5, 5, 1, 4, 5, 5, 2, 4, 1, 5, 3, 3, 4
  |2, 3, 3, 2, 5, 2, 2, 5, 2, 5, 2, 2, 5, 2, 3
  |1, 4, 5, 5, 2, 1, 5, 5, 3, 3, 1, 4, 1, 3, 2
  |2, 2, 1, 3, 1, 1, 1, 3, 5, 5, 3, 1, 5, 3, 5
  |3, 2, 3, 5, 2, 4, 1, 3, 1, 3, 4, 2, 1, 4, 5
  |3, 5, 4, 1, 4, 3, 5, 4, 4, 5, 4, 5, 3, 2, 2
  |4, 2, 2, 5, 3, 1, 3, 4, 5, 5, 5, 2, 2, 3, 4
  |5, 2, 1, 1, 1, 1, 3, 5, 1, 5, 3, 5, 1, 5, 4
  |4, 5, 3, 5, 4, 1, 5, 5, 1, 5, 4, 3, 5, 5, 2
  |4, 5, 3, 5, 1, 3, 5, 2, 3, 4, 1, 1, 5, 2, 3
  |4, 2, 5, 2, 3, 3, 3, 5, 5, 2, 5, 5, 4, 2, 5
  |5, 3, 4, 1, 1, 4, 5, 5, 2, 3, 3, 5, 5, 5, 2
  |5, 4, 5, 4, 1, 5, 3, 4, 5, 2, 5, 2, 5, 3, 2
  |5, 5, 5, 1, 1, 3, 1, 2, 4, 3, 5, 1, 3, 3, 4
  |5, 1, 3, 1, 1, 5, 5, 4, 2, 3, 4, 1, 5, 5, 2
  |5, 2, 5, 5, 2, 5, 3, 4, 5, 5, 1, 2, 1, 5, 5
  |1, 5, 2, 1, 1, 2, 4, 2, 5, 5, 4, 2, 2, 2, 5
  |2, 4, 3, 1, 4, 3, 3, 4, 2, 5, 3, 1, 3, 3, 3
  |3, 5, 4, 2, 1, 1, 5, 5, 3, 3, 4, 5, 1, 3, 5
  |1, 1, 3, 1, 2, 2, 4, 3, 4, 5, 5, 5, 1, 2, 5
  |3, 4, 4, 3, 1, 5, 3, 2, 1, 5, 1, 3, 5, 1, 4
  |5, 2, 2, 2, 2, 5, 3, 2, 3, 5, 5, 3, 1, 3, 4
  |1, 4, 2, 3, 2, 3, 4, 5, 2, 2, 4, 4, 5, 2, 1
  |3, 5, 5, 1, 1, 2, 1, 3, 5, 2, 1, 5, 5, 1, 3
  |3, 4, 4, 5, 1, 3, 5, 3, 3, 5, 4, 5, 3, 3, 5
  |4, 4, 3, 1, 5, 2, 5, 3, 5, 5, 1, 5, 2, 2, 5
  |2, 4, 4, 3, 1, 4, 2, 1, 1, 4, 4, 2, 3, 5, 3
  |5, 4, 2, 5, 4, 1, 2, 4, 3, 3, 1, 5, 3, 1, 4
  |3, 5, 5, 3, 1, 1, 4, 2, 2, 5, 3, 1, 1, 5, 4
  |4, 5, 3, 1, 1, 1, 3, 2, 1, 3, 5, 4, 3, 3, 4
  |3, 2, 2, 2, 4, 3, 1, 4, 5, 4, 2, 3, 5, 3, 5
  |2, 5, 3, 3, 2, 4, 3, 4, 1, 5, 4, 5, 5, 4, 5
  |4, 2, 2, 3, 3, 2, 5, 4, 4, 3, 3, 1, 4, 4, 5
  |2, 5, 3, 1, 5, 4, 3, 3, 5, 4, 2, 2, 5, 3, 4
  |5, 2, 2, 4, 1, 1, 3, 5, 4, 3, 4, 1, 5, 2, 3
  |2, 1, 1, 4, 1, 4, 5, 5, 3, 5, 4, 5, 5, 5, 5
  |2, 4, 5, 4, 1, 2, 4, 5, 4, 2, 4, 4, 5, 3, 2
  |1, 4, 3, 2, 1, 1, 1, 4, 2, 2, 4, 2, 3, 2, 4
  |5, 2, 5, 1, 3, 1, 4, 3, 3, 5, 4, 5, 1, 3, 2
  |3, 3, 2, 1, 2, 3, 1, 3, 5, 4, 4, 2, 3, 1, 4
  |3, 5, 5, 1, 5, 4, 5, 5, 3, 4, 5, 4, 2, 5, 3
  |4, 5, 2, 1, 2, 4, 3, 5, 2, 4, 4, 3, 4, 3, 1
  |2, 5, 3, 5, 1, 1, 5, 5, 4, 3, 1, 2, 3, 5, 5
  |4, 2, 5, 1, 4, 2, 1, 2, 1, 5, 4, 2, 3, 1, 3
  |3, 4, 2, 5, 1, 4, 5, 5, 3, 5, 3, 3, 3, 2, 1
  |5, 5, 1, 1, 1, 1, 3, 5, 2, 3, 5, 2, 3, 4, 5
  |2, 5, 2, 1, 2, 1, 5, 5, 2, 3, 1, 2, 5, 3, 4
  |5, 5, 3, 1, 5, 1, 5, 5, 2, 3, 5, 3, 4, 5, 5
  |5, 4, 4, 1, 5, 2, 2, 4, 1, 3, 5, 5, 4, 3, 3
  |4, 3, 3, 1, 2, 2, 5, 3, 4, 5, 5, 1, 1, 5, 3
  |5, 2, 2, 5, 1, 3, 1, 4, 4, 4, 4, 5, 5, 4, 5
  |5, 5, 2, 1, 2, 3, 4, 4, 4, 2, 3, 5, 5, 5, 2
  |3, 2, 5, 1, 1, 3, 2, 4, 4, 3, 4, 4, 5, 5, 3
  |5, 4, 3, 4, 1, 5, 5, 4, 3, 4, 1, 2, 3, 5, 3
  |5, 3, 4, 3, 1, 4, 2, 1, 2, 4, 5, 3, 4, 2, 3
  |1, 4, 5, 3, 2, 2, 5, 1, 3, 5, 5, 3, 5, 4, 1
  |1, 3, 3, 3, 2, 4, 3, 4, 5, 5, 4, 2, 1, 1, 2
  |3, 4, 5, 3, 1, 1, 3, 2, 5, 4, 5, 4, 1, 2, 5
  |1, 3, 5, 4, 4, 5, 1, 5, 3, 4, 4, 2, 5, 4, 5
  |2, 5, 1, 1, 1, 4, 4, 3, 4, 3, 4, 5, 5, 5, 4
  |2, 2, 3, 1, 1, 3, 5, 5, 5, 5, 1, 4, 4, 2, 5
  |5, 4, 2, 4, 1, 1, 5, 4, 2, 5, 5, 4, 4, 1, 3
  |3, 5, 4, 1, 2, 1, 1, 2, 4, 4, 5, 1, 5, 2, 5
  |3, 3, 4, 5, 2, 3, 3, 5, 2, 2, 4, 4, 5, 2, 5
  |3, 4, 2, 5, 1, 2, 2, 3, 5, 4, 3, 5, 5, 5, 3
  |3, 2, 3, 5, 4, 2, 3, 4, 2, 4, 5, 4, 3, 5, 5
  |2, 5, 2, 1, 1, 1, 2, 5, 4, 2, 2, 4, 3, 5, 2
  |4, 2, 2, 2, 4, 4, 5, 1, 5, 2, 3, 1, 3, 5, 3
  |3, 5, 5, 4, 5, 4, 4, 4, 5, 3, 2, 1, 5, 3, 3
  |4, 5, 5, 1, 3, 4, 3, 4, 4, 5, 5, 3, 5, 4, 2
  |4, 5, 4, 5, 2, 2, 1, 5, 5, 5, 5, 1, 5, 5, 5
  |3, 3, 5, 3, 2, 3, 1, 3, 3, 5, 1, 4, 4, 2, 2
  |1, 2, 2, 1, 4, 1, 3, 5, 2, 5, 3, 2, 2, 2, 3
  |2, 5, 5, 1, 1, 1, 5, 5, 5, 5, 1, 2, 4, 2, 2
  |3, 2, 3, 3, 1, 5, 3, 2, 3, 3, 4, 2, 2, 3, 4
  |5, 2, 2, 1, 5, 4, 5, 4, 4, 5, 5, 4, 3, 5, 5
  |2, 3, 4, 5, 2, 5, 2, 5, 2, 3, 3, 4, 3, 5, 3
  |1, 2, 5, 2, 4, 1, 5, 5, 3, 4, 4, 1, 3, 1, 5
  |5, 5, 4, 1, 1, 4, 3, 4, 3, 1, 4, 2, 2, 1, 5
  |5, 5, 3, 1, 2, 4, 5, 5, 2, 2, 4, 2, 5, 3, 3
  |2, 1, 2, 3, 2, 4, 5, 5, 4, 4, 3, 2, 3, 3, 5
  |3, 2, 2, 5, 2, 1, 3, 1, 5, 2, 2, 2, 5, 3, 3
  |5, 4, 2, 5, 5, 2, 3, 2, 1, 4, 2, 5, 3, 2, 5
  |2, 4, 3, 2, 2, 1, 5, 3, 4, 3, 5, 5, 4, 5, 3
  |5, 2, 2, 1, 1, 2, 5, 4, 4, 2, 4, 5, 5, 5, 2
  |3, 2, 2, 5, 2, 1, 5, 5, 3, 5, 1, 2, 3, 5, 2
  |5, 3, 1, 5, 2, 2, 3, 4, 5, 5, 4, 2, 3, 3, 2
  |5, 2, 5, 5, 1, 3, 3, 5, 2, 4, 5, 2, 4, 1, 4
  |4, 4, 4, 3, 1, 5, 2, 3, 5, 5, 4, 2, 3, 3, 1
  |5, 5, 3, 4, 3, 1, 4, 5, 5, 2, 3, 2, 3, 5, 2
  |5, 2, 2, 1, 1, 4, 2, 3, 5, 3, 5, 3, 2, 5, 5
  |5, 2, 2, 1, 1, 4, 2, 5, 2, 5, 5, 2, 5, 3, 4
  |1, 2, 2, 1, 3, 1, 4, 5, 5, 3, 2, 2, 2, 4, 5
  |4, 4, 5, 2, 1, 2, 5, 4, 4, 2, 5, 2, 3, 2, 4
  |3, 4, 2, 4, 4, 3, 3, 5, 5, 4, 5, 1, 4, 5, 3
  |3, 5, 2, 1, 1, 2, 3, 5, 2, 4, 5, 4, 3, 3, 2
  |5, 3, 5, 4, 1, 3, 5, 2, 1, 5, 4, 2, 5, 2, 5
  |1, 5, 2, 5, 2, 2, 3, 2, 5, 5, 1, 4, 5, 2, 5
  |2, 5, 2, 1, 5, 4, 4, 2, 2, 2, 1, 2, 5, 3, 5
  |3, 3, 3, 2, 2, 2, 3, 4, 1, 3, 3, 5, 3, 2, 5
  |3, 4, 1, 5, 1, 3, 1, 4, 2, 3, 5, 5, 4, 5, 2
  |1, 2, 1, 3, 1, 3, 3, 3, 5, 5, 2, 2, 4, 1, 1
  |3, 4, 5, 5, 5, 2, 3, 4, 1, 3, 5, 4, 4, 1, 3
  |5, 3, 4, 4, 3, 2, 1, 3, 2, 5, 3, 3, 5, 5, 5
  |3, 4, 1, 1, 4, 3, 1, 4, 5, 3, 1, 4, 5, 2, 5
  |3, 2, 5, 5, 1, 2, 5, 3, 5, 2, 5, 2, 2, 4, 2
  |5, 2, 4, 4, 1, 4, 3, 5, 2, 2, 2, 4, 5, 4, 5
  |2, 4, 2, 5, 1, 1, 5, 3, 4, 3, 4, 5, 3, 5, 5
  |3, 2, 3, 1, 1, 4, 2, 4, 5, 3, 1, 1, 3, 4, 2
  |3, 1, 5, 1, 1, 1, 4, 2, 1, 5, 4, 4, 1, 3, 2
  |5, 3, 5, 3, 4, 2, 5, 5, 3, 3, 2, 1, 3, 2, 4
  |5, 4, 2, 1, 1, 2, 5, 2, 2, 5, 2, 2, 5, 5, 3
  |4, 2, 2, 5, 4, 3, 5, 2, 5, 3, 1, 4, 3, 3, 5
  |5, 5, 2, 3, 4, 3, 3, 4, 4, 4, 2, 2, 3, 2, 4
  |5, 2, 3, 3, 3, 2, 5, 5, 2, 3, 1, 3, 3, 3, 5
  |2, 2, 5, 1, 2, 2, 4, 5, 4, 5, 5, 2, 2, 3, 5
  |5, 2, 5, 3, 3, 1, 3, 4, 3, 4, 5, 1, 3, 2, 3
  |5, 5, 4, 2, 1, 3, 1, 5, 5, 4, 5, 1, 1, 1, 5
  |4, 5, 2, 1, 1, 2, 3, 4, 5, 4, 2, 3, 5, 5, 5
  |4, 5, 2, 2, 1, 1, 1, 3, 2, 5, 4, 2, 5, 3, 5
  |2, 5, 2, 1, 1, 1, 2, 4, 3, 5, 4, 2, 2, 3, 5
  |2, 4, 5, 1, 3, 3, 1, 4, 3, 4, 4, 2, 5, 3, 5
  |5, 5, 5, 1, 4, 2, 2, 5, 2, 3, 2, 5, 5, 2, 2
  |5, 2, 5, 1, 1, 4, 5, 5, 3, 5, 2, 3, 3, 3, 3
  |2, 3, 3, 3, 1, 5, 1, 5, 2, 5, 5, 5, 5, 5, 1
  |3, 3, 4, 4, 4, 2, 5, 2, 1, 3, 2, 4, 1, 5, 3
  |2, 3, 4, 1, 1, 1, 5, 4, 5, 5, 3, 5, 5, 1, 5
  |1, 3, 5, 5, 1, 1, 1, 5, 2, 5, 5, 4, 5, 3, 4
  |2, 2, 5, 3, 4, 1, 5, 3, 2, 5, 1, 1, 5, 2, 2
  |2, 3, 1, 1, 3, 2, 5, 4, 5, 2, 2, 5, 1, 2, 2
  |1, 5, 2, 5, 1, 4, 3, 3, 3, 2, 5, 3, 4, 2, 5
  |2, 2, 1, 3, 1, 2, 3, 5, 3, 5, 5, 4, 4, 2, 5
  |5, 3, 5, 4, 1, 1, 5, 2, 2, 5, 4, 4, 5, 1, 1
  |5, 4, 5, 1, 3, 2, 5, 4, 5, 3, 2, 4, 3, 1, 3
  |3, 2, 3, 2, 4, 4, 3, 5, 2, 3, 2, 5, 5, 3, 4
  |5, 2, 5, 2, 3, 3, 5, 3, 3, 3, 5, 5, 2, 5, 3
  |4, 4, 3, 2, 1, 5, 3, 2, 5, 5, 1, 2, 5, 5, 5
  |5, 3, 5, 5, 1, 4, 5, 5, 5, 3, 1, 2, 3, 4, 2
  |5, 1, 2, 1, 1, 4, 1, 2, 5, 1, 4, 2, 3, 3, 5
  |3, 1, 3, 5, 2, 4, 3, 5, 5, 5, 5, 4, 4, 3, 4
  |3, 3, 3, 1, 1, 4, 3, 3, 5, 3, 5, 5, 5, 5, 5
  |5, 1, 2, 1, 1, 5, 4, 3, 2, 4, 5, 1, 2, 3, 4
  |2, 3, 5, 5, 1, 4, 5, 1, 3, 3, 2, 1, 5, 5, 5
  |4, 3, 4, 3, 4, 2, 5, 5, 4, 4, 5, 5, 4, 3, 5
  |5, 4, 3, 2, 2, 3, 2, 5, 2, 5, 1, 2, 2, 4, 4
  |5, 1, 5, 1, 4, 3, 4, 5, 5, 2, 2, 2, 2, 1, 3
  |5, 3, 5, 1, 3, 1, 2, 5, 5, 3, 2, 5, 5, 2, 4
  |2, 2, 2, 1, 2, 1, 5, 4, 5, 3, 5, 3, 2, 5, 5
  |5, 1, 4, 1, 5, 2, 3, 3, 4, 5, 1, 2, 5, 1, 4
  |5, 2, 3, 1, 1, 4, 5, 5, 5, 3, 3, 5, 1, 3, 3
  |5, 2, 4, 1, 1, 2, 3, 3, 3, 2, 1, 4, 5, 1, 5
  |3, 2, 4, 2, 1, 4, 5, 4, 3, 2, 5, 5, 1, 2, 3
  |5, 3, 1, 1, 4, 4, 5, 2, 5, 2, 2, 4, 4, 3, 5
  |3, 3, 2, 5, 1, 3, 3, 3, 2, 5, 1, 1, 5, 1, 5
  |4, 2, 2, 1, 2, 4, 2, 2, 3, 4, 1, 2, 2, 3, 5
  |2, 2, 5, 5, 1, 2, 2, 5, 4, 5, 5, 5, 2, 5, 2
  |2, 3, 5, 3, 1, 4, 3, 2, 4, 5, 3, 2, 3, 5, 4
  |2, 1, 4, 1, 3, 4, 4, 3, 5, 2, 5, 2, 3, 2, 4
  |5, 2, 5, 1, 1, 2, 3, 5, 3, 4, 5, 5, 1, 5, 5
  |2, 5, 3, 1, 1, 4, 3, 2, 5, 4, 5, 2, 2, 2, 1
  |4, 5, 3, 3, 1, 1, 3, 5, 4, 2, 3, 4, 1, 1, 4
  |4, 2, 3, 3, 1, 5, 5, 3, 5, 5, 4, 5, 5, 3, 5
  |4, 5, 3, 5, 2, 2, 5, 5, 2, 2, 5, 3, 3, 3, 5
  |5, 1, 5, 1, 1, 1, 1, 5, 4, 2, 4, 1, 3, 4, 5
  |1, 5, 2, 4, 1, 1, 5, 4, 2, 3, 5, 2, 5, 3, 5
  |5, 4, 4, 1, 5, 5, 4, 4, 2, 4, 1, 1, 5, 2, 5
  |2, 2, 2, 1, 1, 1, 1, 5, 2, 5, 4, 4, 3, 3, 4
  |5, 2, 2, 1, 1, 2, 3, 4, 5, 4, 4, 4, 5, 5, 2
  |1, 4, 1, 5, 5, 4, 5, 5, 2, 5, 2, 4, 5, 5, 3
  |5, 5, 5, 1, 1, 2, 3, 5, 5, 4, 5, 2, 3, 5, 5
  |3, 4, 3, 3, 1, 3, 5, 2, 1, 5, 1, 4, 5, 1, 5
  |5, 4, 3, 2, 3, 2, 1, 5, 4, 5, 4, 2, 2, 5, 3
  |2, 2, 4, 1, 1, 1, 3, 5, 4, 5, 5, 5, 5, 3, 4
  |5, 5, 5, 3, 1, 4, 5, 5, 4, 3, 1, 1, 3, 3, 4
  |2, 3, 3, 1, 5, 1, 1, 5, 4, 5, 1, 5, 4, 1, 1
  |1, 2, 2, 2, 4, 4, 3, 2, 3, 4, 1, 2, 3, 5, 2
  |3, 5, 3, 1, 1, 1, 4, 4, 2, 3, 4, 5, 5, 3, 2
  |3, 3, 4, 5, 1, 2, 5, 4, 1, 2, 5, 1, 4, 5, 3
  |4, 5, 3, 1, 5, 1, 3, 2, 5, 5, 4, 4, 5, 3, 5
  |2, 5, 2, 3, 2, 1, 5, 5, 3, 3, 3, 5, 5, 2, 5
  |5, 3, 2, 1, 5, 5, 3, 5, 2, 5, 2, 5, 4, 3, 2
  |2, 3, 3, 5, 5, 4, 5, 4, 3, 5, 1, 4, 5, 5, 5
  |1, 4, 3, 1, 1, 3, 1, 4, 2, 4, 1, 5, 4, 1, 5
  |5, 2, 3, 3, 1, 2, 5, 3, 4, 4, 4, 3, 1, 1, 5
  |2, 4, 4, 1, 2, 2, 5, 3, 5, 4, 4, 4, 3, 5, 5
  |5, 3, 5, 2, 2, 1, 5, 5, 3, 3, 2, 4, 5, 1, 3
  |3, 5, 2, 3, 2, 1, 3, 1, 4, 5, 1, 4, 4, 1, 5
  |5, 2, 2, 1, 1, 5, 2, 1, 3, 3, 5, 4, 5, 2, 5
  |5, 3, 5, 1, 1, 1, 3, 2, 2, 3, 2, 2, 3, 1, 2
  |3, 2, 1, 3, 2, 4, 1, 5, 5, 2, 1, 3, 2, 5, 4
  |4, 3, 4, 1, 1, 2, 5, 3, 1, 3, 3, 1, 2, 3, 3
  |5, 4, 3, 3, 5, 1, 5, 5, 5, 2, 4, 2, 5, 4, 4
  |3, 2, 2, 3, 1, 2, 3, 4, 2, 5, 1, 3, 3, 3, 1
  |2, 5, 2, 5, 1, 1, 4, 3, 4, 1, 4, 5, 5, 1, 4
  |5, 4, 2, 5, 2, 5, 1, 5, 4, 3, 1, 1, 1, 5, 2
  |5, 4, 2, 1, 3, 2, 4, 5, 5, 5, 4, 4, 4, 5, 2
  |4, 5, 3, 1, 5, 4, 5, 5, 2, 3, 4, 5, 5, 1, 3
  |3, 3, 2, 2, 5, 4, 1, 2, 2, 5, 4, 5, 5, 2, 3
  |3, 5, 2, 4, 4, 3, 5, 3, 5, 4, 4, 1, 3, 4, 5
  |2, 5, 5, 1, 2, 1, 3, 3, 5, 5, 3, 5, 5, 4, 4
  |3, 2, 1, 1, 2, 1, 4, 5, 4, 2, 4, 5, 3, 2, 5
  |3, 4, 1, 5, 4, 1, 2, 1, 4, 2, 2, 2, 2, 1, 5
  |2, 5, 3, 1, 4, 1, 5, 3, 3, 3, 1, 1, 1, 1, 4
  |5, 2, 3, 2, 2, 1, 3, 5, 2, 4, 1, 5, 3, 1, 5
  |2, 5, 1, 1, 2, 4, 1, 2, 2, 4, 1, 3, 4, 5, 5
  |5, 2, 3, 3, 5, 1, 3, 3, 2, 5, 2, 3, 4, 3, 2
  |5, 5, 2, 1, 4, 1, 3, 2, 2, 4, 5, 5, 5, 3, 4
  |4, 1, 2, 1, 2, 1, 5, 5, 5, 4, 5, 5, 3, 1, 5
  |5, 3, 4, 1, 2, 1, 5, 5, 2, 3, 3, 2, 5, 4, 5
  |5, 2, 1, 1, 1, 4, 3, 1, 3, 5, 1, 2, 5, 5, 5
  |2, 3, 4, 1, 3, 1, 5, 2, 3, 3, 4, 1, 1, 2, 4
  |2, 2, 2, 1, 1, 2, 3, 3, 5, 4, 5, 3, 5, 5, 2
  |2, 2, 2, 5, 1, 1, 5, 3, 3, 4, 3, 3, 3, 2, 2
  |5, 2, 2, 2, 4, 2, 5, 5, 3, 5, 3, 2, 3, 1, 2
  |5, 4, 4, 2, 5, 2, 1, 5, 4, 5, 5, 3, 4, 3, 5
  |3, 2, 5, 2, 4, 3, 3, 3, 2, 2, 4, 2, 5, 4, 4
  |3, 2, 1, 4, 2, 4, 3, 5, 2, 3, 5, 2, 5, 3, 1
  |5, 4, 5, 2, 1, 4, 5, 2, 4, 4, 1, 4, 2, 2, 5
  |3, 5, 4, 3, 1, 2, 3, 2, 2, 3, 1, 4, 4, 4, 5
  |5, 2, 1, 4, 2, 1, 5, 1, 1, 3, 1, 3, 4, 4, 5
  |5, 2, 4, 5, 4, 2, 5, 5, 4, 3, 1, 5, 1, 4, 2
  |1, 4, 4, 1, 1, 2, 5, 3, 2, 3, 3, 1, 5, 4, 3
  |3, 2, 1, 1, 2, 1, 4, 2, 5, 5, 3, 4, 3, 3, 4
  |5, 4, 1, 1, 1, 1, 2, 1, 1, 5, 4, 3, 2, 3, 5
  |5, 4, 2, 2, 1, 1, 2, 4, 3, 3, 1, 2, 5, 4, 5
  |4, 3, 4, 1, 1, 3, 1, 3, 5, 4, 2, 2, 3, 3, 3
  |2, 3, 2, 1, 4, 3, 4, 5, 4, 3, 1, 5, 5, 3, 3
  |];
min_capacities = [10, 20, 20, 20, 40, 40, 10, 20, 20, 10, 10, 10, 10, 10, 10];
max_capacities = [20, 100, 40, 300, 300, 300, 100, 100, 100, 30, 20, 40, 40, 100, 20];
attendance_costs = [40, 40, 20, 60, 60, 60, 20, 20, 40, 10, 10, 10, 10, 20, 20];
parallel_limits = [4, 6, 4, 20, 20, 10, 6, 6, 6, 4, 4, 4, 4, 6, 4];
slots = 
 [{1, 4, 13, 15, 20},
  {5, 7, 11, 13, 18},
  {2, 3, 4, 6, 15},
  {3, 7, 11, 17, 18},
  {3, 5, 8, 13, 20},
  {8, 12, 13, 17, 19},
  {1, 3, 7, 18, 20},
  {3, 9, 14, 16, 18},
  {1, 5, 7, 19, 20},
  {3, 5, 8, 10, 11},
  {6, 7, 11, 12, 17},
  {2, 10, 15, 19, 20},
  {1, 4, 13, 16, 19},
  {4, 7, 15, 16, 17},
  {1, 5, 11, 14, 19},
  {4, 6, 8, 10, 12},
  {4, 10, 15, 19, 20},
  {1, 2, 4, 12, 15},
  {1, 4, 6, 19, 20},
  {4, 13, 14, 16, 18},
  {3, 4, 12, 13, 14},
  {8, 14, 15, 17, 19},
  {9, 12, 16, 17, 18},
  {1, 3, 8, 12, 18},
  {1, 7, 9, 12, 19},
  {1, 8, 17, 18, 19},
  {1, 3, 4, 5, 13},
  {5, 6, 12, 13, 14},
  {1, 3, 6, 9, 13},
  {8, 12, 17, 19, 20},
  {1, 7, 12, 16, 17},
  {1, 4, 6, 8, 17},
  {3, 6, 7, 15, 18},
  {2, 4, 17, 18, 19},
  {3, 6, 9, 14, 16},
  {1, 8, 11, 15, 16},
  {3, 4, 5, 10, 11},
  {1, 4, 14, 16, 20},
  {2, 6, 9, 12, 16},
  {1, 5, 8, 10, 19},
  {4, 7, 8, 11, 18},
  {1, 6, 7, 12, 20},
  {4, 6, 7, 9, 12},
  {4, 6, 7, 8, 20},
  {1, 10, 14, 15, 17},
  {9, 11, 12, 15, 20},
  {3, 7, 13, 16, 20},
  {1, 2, 4, 12, 18},
  {1, 3, 14, 17, 20},
  {10, 11, 12, 17, 18},
  {3, 4, 11, 12, 18},
  {5, 9, 10, 11, 18},
  {5, 6, 16, 18, 20},
  {8, 9, 16, 17, 20},
  {4, 5, 6, 10, 13},
  {8, 11, 12, 13, 14},
  {1, 2, 4, 12, 15},
  {10, 12, 14, 16, 18},
  {1, 3, 9, 10, 19},
  {2, 3, 9, 10, 14},
  {2, 6, 14, 16, 20},
  {1, 3, 5, 10, 18},
  {2, 3, 6, 15, 16},
  {4, 7, 13, 17, 18},
  {1, 4, 10, 13, 17},
  {1, 3, 8, 17, 19},
  {1, 4, 7, 8, 11},
  {3, 4, 10, 11, 16},
  {5, 6, 10, 11, 16},
  {1, 3, 4, 5, 6},
  {7, 10, 16, 19, 20},
  {3, 5, 7, 11, 18},
  {6, 8, 9, 18, 19},
  {3, 6, 10, 12, 17},
  {4, 5, 8, 10, 16},
  {4, 5, 6, 7, 17},
  {1, 2, 4, 10, 11},
  {1, 3, 5, 10, 12},
  {7, 8, 10, 14, 15},
  {2, 8, 10, 11, 18},
  {3, 5, 7, 15, 20},
  {3, 4, 6, 12, 18},
  {2, 3, 12, 14, 18},
  {8, 10, 15, 18, 20},
  {1, 5, 6, 17, 20},
  {3, 5, 6, 10, 20},
  {6, 8, 12, 14, 17},
  {5, 13, 14, 18, 19},
  {1, 7, 13, 16, 20},
  {1, 10, 12, 15, 18},
  {5, 7, 14, 15, 19},
  {7, 10, 15, 16, 17},
  {9, 12, 13, 14, 18},
  {4, 5, 6, 10, 13},
  {4, 5, 13, 15, 18},
  {3, 7, 10, 13, 20},
  {2, 5, 9, 12, 14},
  {4, 8, 12, 17, 20},
  {1, 5, 14, 17, 20},
  {2, 7, 12, 13, 18},
  {2, 13, 14, 18, 20},
  {2, 6, 14, 15, 18},
  {1, 6, 8, 19, 20},
  {2, 6, 10, 18, 19},
  {3, 7, 15, 17, 20},
  {6, 7, 8, 10, 19},
  {1, 5, 6, 8, 16},
  {2, 4, 9, 10, 15},
  {6, 11, 14, 15, 19},
  {4, 7, 9, 14, 17},
  {3, 8, 11, 12, 15},
  {8, 10, 11, 12, 13},
  {7, 10, 13, 18, 20},
  {6, 9, 10, 12, 17},
  {1, 2, 11, 12, 20},
  {2, 4, 6, 12, 14},
  {4, 6, 10, 17, 18},
  {1, 11, 13, 17, 19},
  {4, 5, 11, 13, 15},
  {1, 5, 10, 14, 15},
  {2, 3, 7, 8, 10},
  {4, 6, 9, 10, 16},
  {1, 3, 4, 11, 15},
  {9, 10, 12, 15, 19},
  {3, 16, 17, 18, 19},
  {1, 12, 13, 14, 15},
  {2, 6, 9, 17, 19},
  {2, 9, 11, 14, 20},
  {2, 6, 7, 11, 18},
  {3, 4, 8, 17, 20},
  {7, 9, 13, 14, 20},
  {3, 4, 6, 8, 19},
  {1, 4, 10, 13, 14},
  {4, 7, 8, 13, 17},
  {1, 5, 11, 14, 17},
  {4, 10, 13, 14, 18},
  {4, 6, 16, 19, 20},
  {3, 10, 11, 14, 17},
  {2, 6, 10, 11, 20},
  {2, 3, 6, 9, 20},
  {2, 9, 14, 15, 16},
  {3, 4, 8, 14, 17},
  {3, 8, 12, 14, 16},
  {3, 6, 7, 12, 15},
  {1, 8, 10, 12, 14},
  {1, 2, 10, 14, 18},
  {1, 4, 8, 11, 16},
  {1, 6, 11, 14, 19},
  {4, 7, 11, 13, 18},
  {4, 7, 11, 12, 14},
  {1, 3, 6, 9, 11},
  {3, 7, 10, 11, 12},
  {2, 5, 8, 9, 17},
  {2, 6, 8, 12, 16},
  {2, 3, 4, 6, 13},
  {1, 6, 7, 9, 20},
  {6, 10, 13, 17, 19},
  {2, 3, 6, 8, 15},
  {2, 3, 7, 14, 19},
  {1, 3, 7, 12, 20},
  {6, 11, 12, 13, 14},
  {5, 9, 11, 14, 15},
  {2, 6, 7, 15, 18},
  {2, 3, 7, 11, 12},
  {3, 4, 7, 9, 16},
  {3, 13, 17, 18, 19},
  {2, 7, 8, 13, 16},
  {1, 5, 8, 10, 18},
  {3, 10, 14, 17, 20},
  {2, 4, 5, 11, 12},
  {3, 10, 13, 18, 20},
  {4, 8, 9, 15, 16},
  {2, 4, 6, 11, 12},
  {1, 7, 9, 10, 16},
  {8, 14, 16, 18, 19},
  {8, 9, 15, 16, 17},
  {6, 13, 15, 17, 18},
  {1, 5, 9, 13, 19},
  {7, 9, 10, 11, 15},
  {6, 12, 17, 18, 19},
  {1, 6, 8, 10, 18},
  {1, 3, 12, 16, 20},
  {1, 3, 6, 7, 10},
  {3, 8, 13, 14, 20},
  {1, 4, 6, 11, 15},
  {11, 12, 13, 14, 17},
  {1, 2, 6, 14, 18},
  {3, 4, 7, 8, 15},
  {2, 3, 5, 10, 16},
  {5, 8, 15, 18, 20},
  {2, 4, 7, 8, 16},
  {1, 4, 14, 16, 18},
  {1, 3, 13, 14, 20},
  {3, 6, 7, 12, 13},
  {3, 6, 12, 15, 20},
  {4, 10, 15, 17, 20},
  {2, 4, 16, 17, 20},
  {6, 9, 12, 14, 17},
  {2, 9, 12, 14, 17},
  {7, 8, 10, 14, 19},
  {1, 2, 6, 10, 18},
  {5, 7, 12, 15, 16},
  {1, 6, 13, 14, 15},
  {3, 4, 10, 13, 15},
  {3, 13, 15, 16, 18},
  {3, 8, 11, 13, 18},
  {1, 3, 8, 16, 19},
  {5, 11, 14, 17, 20},
  {1, 3, 10, 12, 19},
  {1, 3, 12, 15, 19},
  {2, 3, 6, 8, 13},
  {8, 11, 12, 15, 17},
  {1, 7, 9, 12, 15},
  {1, 4, 13, 17, 18},
  {4, 5, 7, 12, 15},
  {3, 4, 5, 13, 20},
  {4, 6, 7, 10, 14},
  {4, 6, 8, 16, 18},
  {3, 13, 14, 16, 18},
  {3, 7, 11, 16, 19},
  {4, 6, 10, 18, 20},
  {7, 8, 9, 15, 17},
  {4, 6, 8, 13, 16},
  {2, 7, 8, 10, 16},
  {8, 12, 16, 17, 18},
  {5, 8, 10, 11, 19},
  {3, 9, 11, 17, 20},
  {5, 6, 9, 13, 19},
  {1, 4, 6, 7, 15},
  {1, 6, 8, 14, 16},
  {5, 6, 8, 11, 15},
  {2, 6, 13, 16, 17},
  {3, 9, 13, 17, 20},
  {2, 3, 7, 11, 17},
  {3, 5, 12, 13, 20},
  {7, 10, 14, 17, 19},
  {6, 8, 10, 12, 17},
  {6, 10, 15, 16, 20},
  {1, 8, 9, 18, 19},
  {6, 8, 11, 19, 20},
  {2, 7, 11, 15, 18},
  {4, 10, 12, 13, 20},
  {2, 3, 13, 14, 15},
  {2, 4, 10, 15, 19},
  {6, 16, 17, 19, 20},
  {10, 12, 14, 18, 19},
  {3, 6, 8, 13, 16},
  {3, 15, 18, 19, 20},
  {1, 5, 6, 8, 19},
  {6, 8, 11, 14, 17},
  {1, 7, 8, 15, 16},
  {3, 11, 13, 14, 16},
  {6, 12, 14, 17, 18},
  {1, 2, 6, 7, 18},
  {6, 8, 9, 16, 20},
  {2, 6, 14, 18, 19},
  {4, 13, 16, 18, 19},
  {4, 5, 8, 10, 12},
  {8, 9, 10, 17, 20},
  {1, 9, 11, 17, 20},
  {1, 3, 9, 15, 20},
  {2, 7, 12, 17, 18},
  {2, 3, 7, 8, 10},
  {1, 6, 13, 15, 18},
  {1, 2, 10, 13, 16},
  {2, 6, 12, 16, 17},
  {11, 12, 14, 17, 20},
  {1, 3, 5, 11, 17},
  {6, 12, 13, 18, 19},
  {1, 2, 7, 9, 17},
  {5, 6, 8, 10, 19},
  {1, 7, 12, 16, 17},
  {11, 12, 13, 17, 19},
  {2, 8, 14, 15, 18},
  {4, 8, 10, 16, 20},
  {5, 10, 11, 12, 19},
  {4, 5, 7, 8, 19},
  {4, 10, 11, 15, 16},
  {2, 6, 16, 19, 20},
  {2, 6, 7, 13, 14},
  {2, 3, 5, 11, 15},
  {1, 8, 14, 17, 20},
  {2, 3, 9, 14, 17},
  {2, 6, 10, 13, 14},
  {5, 6, 11, 14, 18},
  {2, 3, 8, 17, 18},
  {3, 7, 12, 14, 16},
  {4, 6, 7, 13, 17},
  {3, 5, 10, 19, 20},
  {6, 12, 15, 16, 18},
  {1, 8, 10, 15, 16},
  {1, 6, 8, 10, 17},
  {3, 4, 5, 15, 20},
  {2, 5, 9, 16, 19},
  {2, 4, 12, 13, 19},
  {12, 14, 16, 17, 18},
  {7, 8, 11, 16, 17},
  {8, 10, 11, 15, 17},
  {2, 10, 16, 17, 20},
  {3, 8, 11, 15, 19},
  {3, 9, 11, 15, 17},
  {5, 7, 12, 14, 17},
  {11, 12, 15, 16, 18},
  {1, 3, 7, 11, 17},
  {2, 3, 4, 9, 16},
  {5, 7, 14, 15, 18},
  {2, 4, 11, 12, 18},
  {1, 2, 3, 4, 5},
  {2, 6, 7, 11, 14},
  {4, 7, 8, 14, 20},
  {1, 2, 6, 11, 16},
  {3, 9, 11, 12, 19},
  {3, 11, 13, 14, 19},
  {3, 7, 9, 11, 14},
  {2, 5, 11, 14, 18},
  {2, 3, 8, 11, 15},
  {1, 2, 4, 7, 19},
  {4, 8, 10, 17, 20},
  {10, 12, 13, 14, 17},
  {2, 6, 12, 16, 20},
  {4, 10, 11, 12, 15},
  {5, 6, 8, 15, 17},
  {1, 5, 6, 11, 16},
  {3, 14, 15, 17, 18},
  {2, 3, 5, 10, 16},
  {2, 4, 6, 11, 19},
  {4, 10, 12, 15, 20},
  {3, 4, 16, 19, 20},
  {1, 2, 8, 9, 14},
  {3, 7, 10, 17, 19},
  {11, 14, 15, 19, 20},
  {6, 7, 9, 11, 15},
  {1, 9, 16, 19, 20},
  {6, 7, 11, 13, 18},
  {1, 6, 13, 17, 18},
  {1, 3, 8, 9, 10},
  {2, 4, 9, 16, 17},
  {8, 13, 15, 19, 20},
  {4, 5, 12, 15, 19},
  {4, 12, 13, 15, 16},
  {2, 7, 12, 15, 16},
  {3, 5, 11, 13, 15},
  {1, 7, 8, 9, 12},
  {2, 4, 5, 7, 8},
  {7, 8, 12, 13, 14},
  {2, 13, 17, 18, 20},
  {1, 6, 7, 8, 13},
  {3, 9, 10, 15, 20},
  {7, 8, 11, 13, 14},
  {6, 11, 16, 18, 19},
  {3, 7, 11, 15, 18},
  {6, 8, 13, 15, 17},
  {9, 10, 12, 13, 19},
  {4, 5, 9, 13, 18},
  {5, 7, 11, 14, 19},
  {3, 6, 8, 15, 17},
  {6, 10, 12, 15, 19},
  {4, 9, 10, 12, 15},
  {1, 4, 7, 18, 19},
  {4, 10, 16, 17, 19},
  {2, 7, 13, 14, 20},
  {9, 14, 18, 19, 20},
  {5, 7, 8, 11, 20},
  {3, 4, 9, 17, 18},
  {2, 8, 9, 13, 19},
  {1, 6, 9, 15, 17},
  {2, 3, 6, 10, 11},
  {1, 5, 7, 9, 11},
  {7, 8, 14, 16, 20},
  {1, 3, 5, 13, 20},
  {2, 4, 9, 14, 20},
  {2, 5, 9, 12, 19},
  {1, 4, 5, 7, 20},
  {5, 12, 14, 16, 20},
  {3, 6, 9, 13, 18},
  {3, 4, 10, 17, 20},
  {2, 6, 13, 15, 16},
  {11, 12, 14, 16, 17},
  {1, 5, 13, 14, 16},
  {7, 11, 15, 18, 20},
  {1, 4, 7, 10, 11},
  {5, 7, 11, 15, 19},
  {1, 2, 3, 7, 13},
  {7, 11, 13, 14, 19},
  {5, 15, 18, 19, 20},
  {7, 13, 16, 18, 20},
  {3, 6, 10, 13, 17},
  {2, 4, 5, 16, 17},
  {1, 4, 7, 10, 11},
  {2, 3, 7, 11, 15},
  {5, 9, 12, 13, 15},
  {2, 7, 11, 18, 20},
  {3, 9, 12, 16, 18},
  {1, 5, 13, 16, 18},
  {2, 7, 8, 10, 16},
  {5, 10, 11, 12, 18},
  {1, 6, 16, 17, 19},
  {6, 10, 11, 16, 20},
  {3, 8, 9, 17, 20},
  {1, 8, 16, 17, 19
  }];
